<?xml version = "1.0" encoding="UTF-8" standalone="yes"?>
<CPLEXSolution version="1.2">
 <header
   problemName="ilog.cplex"
   solutionName="incumbent"
   solutionIndex="-1"
   objectiveValue="289"
   solutionTypeValue="3"
   solutionTypeString="primal"
   solutionStatusValue="101"
   solutionStatusString="integer optimal solution"
   solutionMethodString="mip"
   primalFeasible="1"
   dualFeasible="1"
   MIPNodes="36135"
   MIPIterations="570711"
   writeLevel="3"/>
 <quality
   epInt="1.0000000000000001e-05"
   epRHS="9.9999999999999995e-07"
   maxIntInfeas="4.4408920985006262e-16"
   maxPrimalInfeas="0"
   maxX="11"
   maxSlack="100"/>
 <variables>
  <variable name="x_0_3_0" index="50" value="1"/>
  <variable name="x_2_0_0" index="60" value="1"/>
  <variable name="x_0_3_1" index="72" value="1"/>
  <variable name="x_9_0_1" index="89" value="1"/>
  <variable name="x_0_1_2" index="92" value="1"/>
  <variable name="x_7_0_2" index="109" value="1"/>
  <variable name="x_1_7_2" index="181" value="1"/>
  <variable name="x_11_2_0" index="233" value="1"/>
  <variable name="x_3_4_0" index="288" value="1"/>
  <variable name="x_3_5_1" index="305" value="1"/>
  <variable name="x_4_11_0" index="358" value="1"/>
  <variable name="x_5_10_1" index="424" value="1"/>
  <variable name="x_6_8_1" index="467" value="1"/>
  <variable name="x_10_6_1" index="474" value="1"/>
  <variable name="x_8_9_1" index="534" value="1"/>
  <variable name="y_0_2" index="577" value="1"/>
  <variable name="y_1_0" index="583" value="1"/>
  <variable name="y_2_0" index="587" value="1"/>
  <variable name="y_3_0" index="591" value="1"/>
  <variable name="y_4_1" index="594" value="1"/>
  <variable name="y_5_1" index="598" value="1"/>
  <variable name="y_6_2" index="601" value="1"/>
  <variable name="y_7_1" index="606" value="1"/>
  <variable name="y_8_1" index="610" value="1"/>
  <variable name="y_9_1" index="614" value="1"/>
  <variable name="y_10_0" index="619" value="1"/>
  <variable name="u_1_0" index="620" value="1"/>
  <variable name="u_2_0" index="621" value="11"/>
  <variable name="u_1_1" index="622" value="1"/>
  <variable name="u_2_1" index="623" value="1"/>
  <variable name="u_1_2" index="624" value="1"/>
  <variable name="u_2_2" index="625" value="1"/>
  <variable name="u_1_3" index="626" value="1"/>
  <variable name="u_2_3" index="627" value="1.0000000000000004"/>
  <variable name="u_3_0" index="628" value="1"/>
  <variable name="u_3_1" index="629" value="6"/>
  <variable name="u_3_2" index="630" value="1"/>
  <variable name="u_3_3" index="631" value="1"/>
  <variable name="u_4_0" index="632" value="2"/>
  <variable name="u_4_1" index="633" value="1"/>
  <variable name="u_4_2" index="634" value="1"/>
  <variable name="u_4_3" index="635" value="1"/>
  <variable name="u_5_0" index="636" value="1"/>
  <variable name="u_5_1" index="637" value="7"/>
  <variable name="u_5_2" index="638" value="1"/>
  <variable name="u_5_3" index="639" value="1"/>
  <variable name="u_6_0" index="640" value="1"/>
  <variable name="u_6_1" index="641" value="9"/>
  <variable name="u_6_2" index="642" value="1"/>
  <variable name="u_6_3" index="643" value="11"/>
  <variable name="u_7_0" index="644" value="1"/>
  <variable name="u_7_1" index="645" value="1.0000000000000004"/>
  <variable name="u_7_2" index="646" value="11"/>
  <variable name="u_7_3" index="647" value="1"/>
  <variable name="u_8_0" index="648" value="1"/>
  <variable name="u_8_1" index="649" value="10"/>
  <variable name="u_8_2" index="650" value="11"/>
  <variable name="u_8_3" index="651" value="11"/>
  <variable name="u_9_0" index="652" value="1"/>
  <variable name="u_9_1" index="653" value="11"/>
  <variable name="u_9_2" index="654" value="1"/>
  <variable name="u_9_3" index="655" value="1"/>
  <variable name="u_10_0" index="656" value="1"/>
  <variable name="u_10_1" index="657" value="8"/>
  <variable name="u_10_2" index="658" value="1"/>
  <variable name="u_10_3" index="659" value="1.0000000000000004"/>
  <variable name="u_11_0" index="660" value="10"/>
  <variable name="u_11_1" index="661" value="1"/>
  <variable name="u_11_2" index="662" value="1"/>
  <variable name="u_11_3" index="663" value="1"/>
 </variables>
 <objectiveValues>
  <objective index="0" name="" value="289"/>
 </objectiveValues>
</CPLEXSolution>
